certificates/rado_a13_c145_N26.drat
-24 10 -26 0
24 10 0
d 24 9 10 0
10 -26 0
d -24 10 -26 0
-26 0
24 0
-10 0
25 0
11 0
-23 0
-9 0
-13 0
-22 0
12 0
8 0
2 0
7 0
-1 0
-14 0
-6 0
-19 0
-4 0
-5 0
-18 0
16 0
21 0
0
